(set-info :smt-lib-version 2.6)
(set-option :produce-assignments true)
(set-logic BPA)
(set-info :source | Kaya Guvendi and Ethan Bogle |)
(set-info :category "crafted")
(set-info :status sat)
(declare-const p Pointer)
(declare-const p_to_b Pointer)
(declare-const q Pointer)
(assert (<= 1 (Address p) 512))
(assert (<= 1 (Address p_to_b) 512))
(assert (= (Address q) (+p (Address p_to_b) -1)))
(assert (= (Address p_to_b) (+p (Address p) 1)))
(assert (not (= p q)))
(check-sat)
(get-model)
(exit)